data;


param d:= 100;
param r:=5;
param p:=0.800000;
param M:=1000;
param U:=
         1         1        1.295881e+00
         2         1        6.351050e-01
         3         1       -1.283111e+00
         4         1       -5.996539e-01
         5         1       -1.593430e-01
         6         1       -8.651567e-01
         7         1        1.122465e+00
         8         1       -2.904178e-01
         9         1        7.464100e-01
        10         1       -3.263089e-01
        11         1       -1.885405e+00
        12         1       -6.592500e-01
        13         1       -1.955145e+00
        14         1       -1.521344e+00
        15         1        7.144345e-01
        16         1        2.982625e-01
        17         1        8.651305e-01
        18         1        4.325167e-01
        19         1       -9.232995e-01
        20         1        1.236211e+00
        21         1       -9.792231e-01
        22         1        1.553090e+00
        23         1       -4.768180e-01
        24         1        5.432862e-01
        25         1        1.203208e-02
        26         1       -7.751416e-01
        27         1        9.308377e-01
        28         1        9.481888e-01
        29         1        2.477884e-01
        30         1       -1.268023e+00
        31         1       -1.893656e-01
        32         1       -1.845473e+00
        33         1        1.155971e+00
        34         1       -6.338852e-02
        35         1       -1.137590e+00
        36         1        2.966375e-01
        37         1        7.488875e-01
        38         1       -1.627839e-01
        39         1       -7.498433e-02
        40         1        1.088498e+00
        41         1       -1.520293e+00
        42         1        5.276767e-01
        43         1       -5.333761e-02
        44         1        2.579013e-01
        45         1       -4.683219e-01
        46         1        6.902482e-01
        47         1        1.067487e-01
        48         1       -7.563197e-01
        49         1       -5.894858e-01
        50         1        5.480011e-01
        51         1       -2.760472e-01
        52         1       -1.950550e+00
        53         1        3.832587e-01
        54         1        2.699932e-01
        55         1        2.304688e+00
        56         1        8.925645e-01
        57         1        7.735213e-01
        58         1       -8.264098e-01
        59         1        2.042123e-01
        60         1       -2.333492e-01
        61         1        1.481770e+00
        62         1       -1.057909e+00
        63         1        1.363549e+00
        64         1       -1.622956e+00
        65         1        1.789520e+00
        66         1        1.059467e+00
        67         1        6.291087e-01
        68         1       -5.789191e-01
        69         1        8.338932e-01
        70         1       -3.719586e-01
        71         1        4.171040e-01
        72         1       -7.019716e-01
        73         1       -7.012714e-01
        74         1        9.410689e-01
        75         1        1.189244e-01
        76         1       -4.072317e-01
        77         1        6.109316e-01
        78         1        1.190489e+00
        79         1        1.433295e+00
        80         1       -7.723898e-01
        81         1       -3.743004e-01
        82         1       -4.573841e-01
        83         1       -1.142097e+00
        84         1       -1.578878e-01
        85         1       -7.952980e-01
        86         1        1.433663e+00
        87         1        1.035372e+00
        88         1        1.953486e-01
        89         1       -6.323172e-01
        90         1       -4.164368e-01
        91         1       -5.604874e-01
        92         1        1.321185e+00
        93         1        8.107601e-01
        94         1       -1.955803e+00
        95         1        7.633275e-01
        96         1       -6.375544e-01
        97         1        7.882765e-02
        98         1       -1.788086e+00
        99         1       -8.550891e-01
       100         1        6.161596e-01
         1         2        1.092450e+00
         2         2        6.966444e-01
         3         2       -1.697371e+00
         4         2       -1.111754e+00
         5         2       -1.574083e+00
         6         2       -4.268923e-01
         7         2        1.285413e+00
         8         2       -7.792281e-01
         9         2        1.094682e+00
        10         2       -1.925315e+00
        11         2        1.018159e+00
        12         2       -7.217004e-01
        13         2        6.572571e-01
        14         2        4.811189e-01
        15         2        9.949724e-01
        16         2       -4.365308e-01
        17         2       -8.568302e-01
        18         2       -5.128585e-01
        19         2        6.558394e-02
        20         2        1.206520e+00
        21         2       -4.460440e-01
        22         2        8.262311e-01
        23         2       -2.271578e-01
        24         2       -8.092768e-01
        25         2        1.937110e-01
        26         2       -1.072982e+00
        27         2        1.992743e-02
        28         2        3.905605e-01
        29         2       -2.336139e-01
        30         2        8.290173e-01
        31         2        4.470078e-01
        32         2        2.520021e-01
        33         2        2.438429e-01
        34         2        5.635449e-02
        35         2        1.694690e+00
        36         2       -7.893633e-01
        37         2       -3.006427e-01
        38         2       -2.940583e-01
        39         2        4.996543e-01
        40         2       -7.994961e-01
        41         2       -1.408561e+00
        42         2       -6.707783e-01
        43         2        4.112413e-01
        44         2       -1.562404e-01
        45         2       -1.370057e+00
        46         2       -1.581461e-01
        47         2       -2.359086e-01
        48         2        1.844945e-01
        49         2       -1.765027e+00
        50         2       -1.107556e+00
        51         2       -1.519830e+00
        52         2       -2.209757e+00
        53         2        5.996625e-02
        54         2        4.524933e-02
        55         2        4.232664e-01
        56         2        7.574411e-01
        57         2       -4.384151e-01
        58         2       -1.037575e+00
        59         2        9.553010e-01
        60         2        2.824676e+00
        61         2       -6.557436e-01
        62         2       -3.615386e-01
        63         2        5.898154e-01
        64         2        4.206973e-01
        65         2       -1.120139e+00
        66         2       -8.411413e-01
        67         2        1.266531e+00
        68         2        4.151660e-01
        69         2       -2.337773e+00
        70         2        2.895482e-01
        71         2       -1.368673e-01
        72         2        1.837044e+00
        73         2        6.289591e-01
        74         2       -7.536097e-01
        75         2        2.514613e-01
        76         2        1.286845e+00
        77         2        2.511725e-01
        78         2       -3.605424e-01
        79         2        3.954375e-01
        80         2        1.468968e+00
        81         2        1.696868e+00
        82         2        1.810724e-01
        83         2        2.396619e-02
        84         2       -1.355894e+00
        85         2       -1.009255e-03
        86         2        5.315205e-01
        87         2        1.477545e+00
        88         2        1.078118e+00
        89         2        2.083609e-01
        90         2       -1.553664e+00
        91         2        6.607335e-01
        92         2        8.168229e-01
        93         2       -1.327930e-01
        94         2        5.015397e-01
        95         2       -3.794734e-02
        96         2       -4.703362e-01
        97         2        1.196227e+00
        98         2       -2.226514e+00
        99         2       -2.157136e-01
       100         2       -5.993850e-01
         1         3        1.045403e+00
         2         3       -5.228324e-01
         3         3        8.900016e-01
         4         3        1.527632e+00
         5         3       -4.447966e-02
         6         3        2.083163e-01
         7         3       -1.549723e+00
         8         3        9.546028e-01
         9         3       -1.851861e-01
        10         3       -8.746599e-01
        11         3        1.049195e+00
        12         3       -1.756939e+00
        13         3        2.392368e+00
        14         3       -1.058484e+00
        15         3        1.524767e+00
        16         3        9.295521e-01
        17         3       -7.388629e-01
        18         3       -3.140850e-01
        19         3       -9.742633e-01
        20         3       -4.833190e-02
        21         3        1.538459e+00
        22         3       -3.006400e-01
        23         3        1.016035e+00
        24         3       -2.151610e-01
        25         3        6.890427e-01
        26         3        3.937821e-01
        27         3        5.714039e-01
        28         3       -2.632841e-01
        29         3       -6.045044e-01
        30         3        8.298560e-01
        31         3        5.512681e-01
        32         3       -1.589708e+00
        33         3       -2.361748e+00
        34         3        9.646106e-01
        35         3       -2.134801e+00
        36         3       -1.037491e-01
        37         3        2.481422e-01
        38         3        1.659755e-01
        39         3       -7.350913e-02
        40         3        5.856469e-01
        41         3       -1.812520e+00
        42         3       -2.038767e+00
        43         3        3.048633e-01
        44         3        4.756333e-01
        45         3       -3.479607e-01
        46         3        1.673397e-01
        47         3        3.158195e-01
        48         3       -3.820966e-01
        49         3        1.240684e+00
        50         3       -1.106048e+00
        51         3        7.823586e-01
        52         3        1.171851e-01
        53         3       -4.808335e-01
        54         3        1.928687e-02
        55         3       -4.674405e-02
        56         3       -1.228964e+00
        57         3       -1.239462e+00
        58         3        3.651431e-01
        59         3       -4.302459e-01
        60         3       -4.950334e-01
        61         3        4.752168e-01
        62         3       -4.607510e-01
        63         3       -5.055006e-01
        64         3       -3.462402e-02
        65         3       -1.096097e+00
        66         3        6.725098e-01
        67         3       -4.228009e-01
        68         3       -3.598860e-01
        69         3        1.551074e+00
        70         3        1.159311e+00
        71         3        2.528450e-01
        72         3       -8.814614e-02
        73         3       -1.328730e+00
        74         3        1.220703e+00
        75         3        1.044145e+00
        76         3       -1.319267e+00
        77         3        1.516841e+00
        78         3        1.577930e+00
        79         3        6.593209e-01
        80         3        6.941309e-01
        81         3       -4.309374e-01
        82         3       -1.948788e-01
        83         3       -4.672990e-02
        84         3        7.797366e-01
        85         3        2.008704e+00
        86         3        6.729231e-01
        87         3        3.086745e-01
        88         3        4.849374e-01
        89         3       -6.367721e-01
        90         3       -1.487639e+00
        91         3        4.405734e-01
        92         3       -2.649087e-01
        93         3        9.245248e-01
        94         3        8.237984e-02
        95         3       -1.518432e+00
        96         3        5.812617e-01
        97         3        1.262189e+00
        98         3       -4.297090e-01
        99         3        1.437505e+00
       100         3        3.392584e-01
         1         4        1.082831e+00
         2         4       -4.623952e-01
         3         4        3.058512e-01
         4         4        8.416280e-01
         5         4        1.152932e+00
         6         4        1.328855e+00
         7         4       -2.256701e-01
         8         4        8.395969e-01
         9         4        8.744434e-02
        10         4        7.029315e-01
        11         4        2.546624e-01
        12         4       -9.520301e-01
        13         4        1.093359e+00
        14         4        6.831911e-01
        15         4       -6.202536e-01
        16         4        1.746833e+00
        17         4       -2.161446e+00
        18         4        7.581672e-01
        19         4        4.027528e-02
        20         4       -7.806025e-01
        21         4        1.521772e+00
        22         4        7.441143e-01
        23         4       -1.521793e+00
        24         4       -3.039814e-01
        25         4       -7.766727e-01
        26         4        1.577007e+00
        27         4        3.193222e+00
        28         4       -3.121151e-01
        29         4        8.773888e-01
        30         4        1.426914e+00
        31         4       -3.580707e-01
        32         4        8.709911e-01
        33         4       -2.182689e+00
        34         4        5.639485e-01
        35         4       -2.877892e+00
        36         4       -3.453395e-01
        37         4        6.929887e-01
        38         4       -8.152486e-01
        39         4        5.048544e-01
        40         4       -8.598014e-01
        41         4       -1.364775e+00
        42         4       -6.224700e-01
        43         4        1.107061e+00
        44         4        8.929314e-01
        45         4        3.215276e-01
        46         4       -1.074437e+00
        47         4       -1.041395e+00
        48         4       -8.246407e-03
        49         4       -5.398940e-01
        50         4       -1.412024e+00
        51         4        1.212498e+00
        52         4       -1.982176e+00
        53         4       -6.066687e-01
        54         4       -5.721719e-01
        55         4       -2.301583e+00
        56         4       -1.617345e-01
        57         4       -1.523351e+00
        58         4       -9.434047e-01
        59         4       -8.752698e-01
        60         4       -1.323151e-02
        61         4       -1.060070e+00
        62         4       -6.189531e-01
        63         4       -5.272767e-01
        64         4        9.441229e-01
        65         4        1.575801e+00
        66         4       -1.693845e+00
        67         4       -1.421824e+00
        68         4        1.024080e+00
        69         4        6.784416e-01
        70         4        4.150350e-01
        71         4       -3.980323e-01
        72         4       -7.107226e-01
        73         4        8.411560e-01
        74         4       -1.300069e+00
        75         4       -2.043405e+00
        76         4        8.655539e-01
        77         4       -1.161846e+00
        78         4        1.826819e+00
        79         4        1.353817e+00
        80         4       -1.313755e+00
        81         4       -7.872063e-01
        82         4       -1.239107e+00
        83         4       -1.380219e-01
        84         4       -8.301997e-01
        85         4        4.542171e-02
        86         4        2.650978e-01
        87         4        3.658492e-01
        88         4        1.132382e-02
        89         4       -1.010929e+00
        90         4        1.909624e+00
        91         4        2.476053e+00
        92         4       -1.184918e+00
        93         4        9.062739e-01
        94         4       -1.818782e+00
        95         4       -4.377799e-02
        96         4       -6.972605e-01
        97         4       -6.391862e-01
        98         4        1.142324e+00
        99         4        7.947359e-01
       100         4        1.099645e+00
         1         5       -3.214119e-01
         2         5       -1.732789e-01
         3         5        7.319603e-01
         4         5        8.279824e-02
         5         5        8.118871e-01
         6         5       -1.019132e+00
         7         5        7.798941e-01
         8         5        7.026573e-01
         9         5        1.670110e+00
        10         5        1.177123e+00
        11         5        1.353132e+00
        12         5        7.064023e-01
        13         5       -5.822957e-01
        14         5        9.692192e-01
        15         5       -4.620100e-01
        16         5       -1.085387e+00
        17         5       -3.380489e-01
        18         5        9.160866e-01
        19         5       -7.606156e-01
        20         5       -1.103228e+00
        21         5       -1.123000e+00
        22         5        5.578413e-01
        23         5        5.451296e-01
        24         5        4.903349e-01
        25         5       -5.121223e-01
        26         5       -1.218912e-01
        27         5       -8.368540e-01
        28         5        2.244672e-01
        29         5        1.357684e+00
        30         5       -1.598311e-01
        31         5       -1.208165e+00
        32         5       -4.670285e-01
        33         5       -5.515658e-01
        34         5       -5.587237e-02
        35         5        3.578507e-02
        36         5       -3.267572e-01
        37         5       -6.568892e-01
        38         5        1.956449e+00
        39         5       -1.108595e-01
        40         5       -2.145443e-01
        41         5       -8.846906e-02
        42         5        7.204781e-01
        43         5        1.499649e+00
        44         5       -1.762491e+00
        45         5       -1.195664e+00
        46         5        1.553177e+00
        47         5        7.024672e-02
        48         5       -4.643200e-01
        49         5        4.476707e-01
        50         5        6.783009e-01
        51         5       -1.385979e+00
        52         5       -4.904758e-01
        53         5        1.880053e+00
        54         5       -4.331432e-01
        55         5        7.877680e-01
        56         5        1.625807e-01
        57         5       -1.627607e+00
        58         5       -1.347219e-02
        59         5        9.489674e-01
        60         5        6.995840e-01
        61         5        5.298474e-01
        62         5        1.180710e+00
        63         5       -5.694769e-02
        64         5       -9.482860e-01
        65         5       -6.651186e-01
        66         5        4.957607e-01
        67         5        1.717107e+00
        68         5        4.646840e-01
        69         5        4.075207e-01
        70         5        2.255467e-03
        71         5        1.077856e+00
        72         5        7.161347e-01
        73         5        3.800053e-01
        74         5       -1.153107e-01
        75         5       -1.414713e+00
        76         5       -1.846974e-01
        77         5        1.564118e-01
        78         5        1.103921e+00
        79         5        4.560313e-01
        80         5       -7.761664e-01
        81         5       -1.333382e+00
        82         5        4.291942e-01
        83         5       -1.807028e+00
        84         5        1.482294e-01
        85         5        1.086778e+00
        86         5        3.588974e-01
        87         5        6.965266e-01
        88         5        8.486598e-02
        89         5        1.246931e+00
        90         5        6.513216e-01
        91         5       -4.425649e-01
        92         5       -2.825889e+00
        93         5        4.445308e-01
        94         5        7.124240e-01
        95         5        4.811069e-01
        96         5        3.718428e-01
        97         5       -2.763364e+00
        98         5        1.125839e+00
        99         5       -4.400523e-01
       100         5        2.074326e-01
;

param theta:=
    1        3.571863e-01
    2        1.401832e+00
    3       -1.433575e+00
    4       -5.372828e-01
    5       -2.037430e-01
;
param X_true:=
    1       -2.025738e-02
    2        2.236694e+00
    3       -4.427794e+00
    4       -4.431950e+00
    5       -2.986344e+00
    6       -1.711174e+00
    7        4.385454e+00
    8       -3.160002e+00
    9        1.678576e+00
   10       -2.178502e+00
   11       -1.165113e+00
   12        1.638411e+00
   13       -3.676394e+00
   14        1.085601e+00
   15       -1.098688e-01
   16       -2.553391e+00
   17        1.397402e+00
   18       -7.065656e-01
   19        1.292566e+00
   20        2.843204e+00
   21       -3.769827e+00
   22        1.630979e+00
   23       -1.239353e+00
   24       -5.669382e-01
   25       -1.903265e-01
   26       -3.165476e+00
   27       -2.003513e+00
   28        1.385733e+00
   29       -1.192478e-01
   30       -1.213356e+00
   31        2.064778e-01
   32        1.602843e+00
   33        5.425293e+00
   34       -1.618301e+00
   35        6.569621e+00
   36       -5.983616e-01
   37       -7.474397e-01
   38       -6.674835e-01
   39        5.296544e-01
   40       -1.064258e+00
   41        8.322690e-01
   42        2.357471e+00
   43       -7.808947e-01
   44       -9.295465e-01
   45       -1.518857e+00
   46        4.470073e-02
   47       -1.992689e-01
   48        6.355272e-01
   49       -4.264644e+00
   50        8.483305e-01
   51       -3.719575e+00
   52       -2.798138e+00
   53        8.512963e-01
   54        5.290388e-01
   55        2.560249e+00
   56        3.195069e+00
   57        2.589007e+00
   58       -1.763992e+00
   59        2.306448e+00
   60        4.449744e+00
   61       -6.116070e-01
   62       -1.314754e-01
   63        2.331444e+00
   64       -2.532900e-01
   65       -7.079368e-02
   66       -9.569717e-01
   67        3.018572e+00
   68        2.455944e-01
   69       -5.649859e+00
   70       -1.613243e+00
   71       -4.121841e-01
   72        2.689064e+00
   73        2.008322e+00
   74       -1.747988e+00
   75        2.833244e-01
   76        3.122907e+00
   77       -1.013196e+00
   78       -3.549349e+00
   79       -6.988329e-01
   80        1.652907e+00
   81        3.555610e+00
   82        9.476407e-01
   83        1.353326e-01
   84       -2.659396e+00
   85       -3.411887e+00
   86        7.764609e-02
   87        1.660521e+00
   88        8.633802e-01
   89        1.268769e+00
   90       -1.352593e+00
   91       -1.146066e+00
   92        3.210440e+00
   93       -1.800956e+00
   94        7.184478e-01
   95        2.321945e+00
   96       -1.421042e+00
   97        8.014673e-01
   98       -3.986860e+00
   99       -3.007991e+00
  100       -1.739076e+00
;
param X:=
    1       -2.025738e-02
    2        7.576831e-01
    3       -4.923008e-01
    4       -4.139595e-01
    5       -2.986344e+00
    6       -4.437457e-01
    7       -5.646391e-02
    8        7.489074e-02
    9       -1.161690e+00
   10       -9.490237e-01
   11       -7.375849e-01
   12        1.638411e+00
   13        5.916013e-01
   14       -2.943379e-01
   15        1.380580e+00
   16       -1.576829e+00
   17        1.397402e+00
   18       -7.065656e-01
   19       -3.385479e-01
   20       -1.459831e-01
   21        4.124859e-01
   22       -1.761650e+00
   23        1.324384e+00
   24        6.902007e-01
   25       -3.557070e-01
   26       -1.398784e-01
   27       -2.003513e+00
   28       -3.291392e-01
   29       -2.021136e-01
   30       -1.213356e+00
   31       -1.999155e-01
   32       -4.177525e-01
   33        9.638034e-01
   34        2.892150e-01
   35        6.569621e+00
   36       -1.370799e+00
   37        5.022591e-02
   38       -1.025265e+00
   39       -8.676732e-01
   40       -6.772536e-01
   41        6.755416e-01
   42       -4.013893e-01
   43        4.230440e-01
   44        1.725114e+00
   45        4.768831e-01
   46        1.265324e+00
   47       -1.992689e-01
   48       -2.325948e-02
   49       -4.264644e+00
   50        8.483305e-01
   51       -3.692210e-01
   52        6.871407e-01
   53       -2.509067e-01
   54       -1.141039e+00
   55       -1.996386e+00
   56        1.159793e+00
   57        2.589007e+00
   58       -1.298845e+00
   59        1.041026e+00
   60       -5.621423e-01
   61       -6.116070e-01
   62        4.981650e-01
   63        1.186390e+00
   64       -8.473929e-01
   65       -7.079368e-02
   66       -1.748074e-01
   67       -1.246586e+00
   68        2.455944e-01
   69        2.850481e-01
   70        2.110746e+00
   71        1.596661e+00
   72        3.243922e-01
   73        2.008322e+00
   74       -1.731009e-01
   75        8.193414e-01
   76        5.880021e-01
   77        1.273174e+00
   78        1.362135e+00
   79        2.143911e+00
   80       -1.342852e+00
   81       -6.861163e-02
   82        3.032523e+00
   83       -5.589903e-01
   84       -2.618500e-01
   85        6.706327e-01
   86        9.683636e-01
   87       -6.177222e-01
   88       -1.588455e+00
   89        1.086373e+00
   90       -7.019037e-02
   91       -1.146066e+00
   92        3.210440e+00
   93       -2.168448e-01
   94       -1.801276e-01
   95        2.321945e+00
   96       -2.437367e-01
   97       -5.294035e-01
   98        1.478283e+00
   99       -3.007991e+00
  100       -1.727889e+00
;
param outliervec:=
    1    0
    2    1
    3    1
    4    1
    5    0
    6    1
    7    1
    8    1
    9    1
   10    1
   11    1
   12    0
   13    1
   14    1
   15    1
   16    1
   17    0
   18    0
   19    1
   20    1
   21    1
   22    1
   23    1
   24    1
   25    1
   26    1
   27    0
   28    1
   29    1
   30    0
   31    1
   32    1
   33    1
   34    1
   35    0
   36    1
   37    1
   38    1
   39    1
   40    1
   41    1
   42    1
   43    1
   44    1
   45    1
   46    1
   47    0
   48    1
   49    0
   50    0
   51    1
   52    1
   53    1
   54    1
   55    1
   56    1
   57    0
   58    1
   59    1
   60    1
   61    0
   62    1
   63    1
   64    1
   65    0
   66    1
   67    1
   68    0
   69    1
   70    1
   71    1
   72    1
   73    0
   74    1
   75    1
   76    1
   77    1
   78    1
   79    1
   80    1
   81    1
   82    1
   83    1
   84    1
   85    1
   86    1
   87    1
   88    1
   89    1
   90    1
   91    0
   92    0
   93    1
   94    1
   95    0
   96    1
   97    1
   98    1
   99    0
  100    1
;